NBC/minimal_number_of_NBC_Sbox.lp
Minimize
x0 + x2 + x4 + x6 + x8 + x10 + x12 + x14 + x16 + x18 + x20 + x22 + x24 + x26 + x28 + x30 + x32 + x34 + x36 + x38 + x40 + x42 + x44 + x46 + x48 + x50 + x52 + x54 + x56 + x58 + x60 + x62 + x64 + x66 + x68 + x70 + x72 + x74 + x76 + x78 + x80 + x82 + x84 + x86 + x88 + x90 + x92 + x94 + x96 + x98 + x100 + x102 + x104 + x106 + x108 + x110 + x112 + x114 + x116 + x118 + x120 + x122 + x124 + x126 + x128 + x130 + x132 + x134 + x136 + x138 + x140 + x142 + x144 + x146 + x148 + x150 + x152 + x154 + x156 + x158 + x160 + x162 + x164 + x166 + x168 + x170 + x172 + x174 + x176 + x178 + x180 + x182 + x184 + x186 + x188 + x190 + x192 + x194 + x196 + x198 + x200 + x202 + x204 + x206 + x208 + x210 + x212 + x214 + x216 + x218 + x220 + x222 + x224 + x226 + x228 + x230 + x232 + x234 + x236 + x238 + x240 + x242 + x244 + x246 + x248 + x250 + x252 + x254 + x256 + x258 + x260 + x262 + x264 + x266 + x268 + x270 + x272 + x274 + x276 + x278 + x280 + x282 + x284 + x286 + x288 + x290 + x292 + x294 + x296 + x298 + x300 + x302 + x304 + x306 + x308 + x310 + x312 + x314 + x316 + x318 + x320 + x322 + x324 + x326 + x328 + x330 + x332 + x334 + x336 + x338 + x340 + x342 + x344 + x346 + x348 + x350 + x352 + x354 + x356 + x358 + x360 + x362 + x364 + x366 + x368 + x370 + x372 + x374 + x376 + x378 + x380 + x382 + x384 + x386 + x388 + x390 + x392 + x394 + x396 + x398 + x400 + x402 + x404 + x406 + x408 + x410 + x412 + x414 + x416 + x418 + x420 + x422 + x424 + x426 + x428 + x430 + x432 + x434 + x436 + x438 + x440 + x442 + x444 + x446 + x448 + x450 + x452 + x454 + x456 + x458 + x460 + x462 + x464 + x466 + x468 + x470 + x472 + x474 + x476 + x478

Subject To
x0 + x1 + x18 - 2 d0 >= 0
d0 - x0 >= 0
d0 - x1 >= 0
d0 - x18 >= 0
x0 - x23 = 0
x2 + x3 + x20 - 2 d1 >= 0
d1 - x2 >= 0
d1 - x3 >= 0
d1 - x20 >= 0
x2 - x29 = 0
x4 + x5 + x24 - 2 d2 >= 0
d2 - x4 >= 0
d2 - x5 >= 0
d2 - x24 >= 0
x4 - x27 = 0
x6 + x7 + x22 - 2 d3 >= 0
d3 - x6 >= 0
d3 - x7 >= 0
d3 - x22 >= 0
x6 - x19 = 0
x8 + x9 + x16 - 2 d4 >= 0
d4 - x8 >= 0
d4 - x9 >= 0
d4 - x16 >= 0
x8 - x31 = 0
x10 + x11 + x26 - 2 d5 >= 0
d5 - x10 >= 0
d5 - x11 >= 0
d5 - x26 >= 0
x10 - x25 = 0
x12 + x13 + x30 - 2 d6 >= 0
d6 - x12 >= 0
d6 - x13 >= 0
d6 - x30 >= 0
x12 - x17 = 0
x14 + x15 + x28 - 2 d7 >= 0
d7 - x14 >= 0
d7 - x15 >= 0
d7 - x28 >= 0
x14 - x21 = 0
x16 + x17 + x34 - 2 d8 >= 0
d8 - x16 >= 0
d8 - x17 >= 0
d8 - x34 >= 0
x16 - x39 = 0
x18 + x19 + x36 - 2 d9 >= 0
d9 - x18 >= 0
d9 - x19 >= 0
d9 - x36 >= 0
x18 - x45 = 0
x20 + x21 + x40 - 2 d10 >= 0
d10 - x20 >= 0
d10 - x21 >= 0
d10 - x40 >= 0
x20 - x43 = 0
x22 + x23 + x38 - 2 d11 >= 0
d11 - x22 >= 0
d11 - x23 >= 0
d11 - x38 >= 0
x22 - x35 = 0
x24 + x25 + x32 - 2 d12 >= 0
d12 - x24 >= 0
d12 - x25 >= 0
d12 - x32 >= 0
x24 - x47 = 0
x26 + x27 + x42 - 2 d13 >= 0
d13 - x26 >= 0
d13 - x27 >= 0
d13 - x42 >= 0
x26 - x41 = 0
x28 + x29 + x46 - 2 d14 >= 0
d14 - x28 >= 0
d14 - x29 >= 0
d14 - x46 >= 0
x28 - x33 = 0
x30 + x31 + x44 - 2 d15 >= 0
d15 - x30 >= 0
d15 - x31 >= 0
d15 - x44 >= 0
x30 - x37 = 0
x32 + x33 + x50 - 2 d16 >= 0
d16 - x32 >= 0
d16 - x33 >= 0
d16 - x50 >= 0
x32 - x55 = 0
x34 + x35 + x52 - 2 d17 >= 0
d17 - x34 >= 0
d17 - x35 >= 0
d17 - x52 >= 0
x34 - x61 = 0
x36 + x37 + x56 - 2 d18 >= 0
d18 - x36 >= 0
d18 - x37 >= 0
d18 - x56 >= 0
x36 - x59 = 0
x38 + x39 + x54 - 2 d19 >= 0
d19 - x38 >= 0
d19 - x39 >= 0
d19 - x54 >= 0
x38 - x51 = 0
x40 + x41 + x48 - 2 d20 >= 0
d20 - x40 >= 0
d20 - x41 >= 0
d20 - x48 >= 0
x40 - x63 = 0
x42 + x43 + x58 - 2 d21 >= 0
d21 - x42 >= 0
d21 - x43 >= 0
d21 - x58 >= 0
x42 - x57 = 0
x44 + x45 + x62 - 2 d22 >= 0
d22 - x44 >= 0
d22 - x45 >= 0
d22 - x62 >= 0
x44 - x49 = 0
x46 + x47 + x60 - 2 d23 >= 0
d23 - x46 >= 0
d23 - x47 >= 0
d23 - x60 >= 0
x46 - x53 = 0
x48 + x49 + x66 - 2 d24 >= 0
d24 - x48 >= 0
d24 - x49 >= 0
d24 - x66 >= 0
x48 - x71 = 0
x50 + x51 + x68 - 2 d25 >= 0
d25 - x50 >= 0
d25 - x51 >= 0
d25 - x68 >= 0
x50 - x77 = 0
x52 + x53 + x72 - 2 d26 >= 0
d26 - x52 >= 0
d26 - x53 >= 0
d26 - x72 >= 0
x52 - x75 = 0
x54 + x55 + x70 - 2 d27 >= 0
d27 - x54 >= 0
d27 - x55 >= 0
d27 - x70 >= 0
x54 - x67 = 0
x56 + x57 + x64 - 2 d28 >= 0
d28 - x56 >= 0
d28 - x57 >= 0
d28 - x64 >= 0
x56 - x79 = 0
x58 + x59 + x74 - 2 d29 >= 0
d29 - x58 >= 0
d29 - x59 >= 0
d29 - x74 >= 0
x58 - x73 = 0
x60 + x61 + x78 - 2 d30 >= 0
d30 - x60 >= 0
d30 - x61 >= 0
d30 - x78 >= 0
x60 - x65 = 0
x62 + x63 + x76 - 2 d31 >= 0
d31 - x62 >= 0
d31 - x63 >= 0
d31 - x76 >= 0
x62 - x69 = 0
x64 + x65 + x82 - 2 d32 >= 0
d32 - x64 >= 0
d32 - x65 >= 0
d32 - x82 >= 0
x64 - x87 = 0
x66 + x67 + x84 - 2 d33 >= 0
d33 - x66 >= 0
d33 - x67 >= 0
d33 - x84 >= 0
x66 - x93 = 0
x68 + x69 + x88 - 2 d34 >= 0
d34 - x68 >= 0
d34 - x69 >= 0
d34 - x88 >= 0
x68 - x91 = 0
x70 + x71 + x86 - 2 d35 >= 0
d35 - x70 >= 0
d35 - x71 >= 0
d35 - x86 >= 0
x70 - x83 = 0
x72 + x73 + x80 - 2 d36 >= 0
d36 - x72 >= 0
d36 - x73 >= 0
d36 - x80 >= 0
x72 - x95 = 0
x74 + x75 + x90 - 2 d37 >= 0
d37 - x74 >= 0
d37 - x75 >= 0
d37 - x90 >= 0
x74 - x89 = 0
x76 + x77 + x94 - 2 d38 >= 0
d38 - x76 >= 0
d38 - x77 >= 0
d38 - x94 >= 0
x76 - x81 = 0
x78 + x79 + x92 - 2 d39 >= 0
d39 - x78 >= 0
d39 - x79 >= 0
d39 - x92 >= 0
x78 - x85 = 0
x80 + x81 + x98 - 2 d40 >= 0
d40 - x80 >= 0
d40 - x81 >= 0
d40 - x98 >= 0
x80 - x103 = 0
x82 + x83 + x100 - 2 d41 >= 0
d41 - x82 >= 0
d41 - x83 >= 0
d41 - x100 >= 0
x82 - x109 = 0
x84 + x85 + x104 - 2 d42 >= 0
d42 - x84 >= 0
d42 - x85 >= 0
d42 - x104 >= 0
x84 - x107 = 0
x86 + x87 + x102 - 2 d43 >= 0
d43 - x86 >= 0
d43 - x87 >= 0
d43 - x102 >= 0
x86 - x99 = 0
x88 + x89 + x96 - 2 d44 >= 0
d44 - x88 >= 0
d44 - x89 >= 0
d44 - x96 >= 0
x88 - x111 = 0
x90 + x91 + x106 - 2 d45 >= 0
d45 - x90 >= 0
d45 - x91 >= 0
d45 - x106 >= 0
x90 - x105 = 0
x92 + x93 + x110 - 2 d46 >= 0
d46 - x92 >= 0
d46 - x93 >= 0
d46 - x110 >= 0
x92 - x97 = 0
x94 + x95 + x108 - 2 d47 >= 0
d47 - x94 >= 0
d47 - x95 >= 0
d47 - x108 >= 0
x94 - x101 = 0
x96 + x97 + x114 - 2 d48 >= 0
d48 - x96 >= 0
d48 - x97 >= 0
d48 - x114 >= 0
x96 - x119 = 0
x98 + x99 + x116 - 2 d49 >= 0
d49 - x98 >= 0
d49 - x99 >= 0
d49 - x116 >= 0
x98 - x125 = 0
x100 + x101 + x120 - 2 d50 >= 0
d50 - x100 >= 0
d50 - x101 >= 0
d50 - x120 >= 0
x100 - x123 = 0
x102 + x103 + x118 - 2 d51 >= 0
d51 - x102 >= 0
d51 - x103 >= 0
d51 - x118 >= 0
x102 - x115 = 0
x104 + x105 + x112 - 2 d52 >= 0
d52 - x104 >= 0
d52 - x105 >= 0
d52 - x112 >= 0
x104 - x127 = 0
x106 + x107 + x122 - 2 d53 >= 0
d53 - x106 >= 0
d53 - x107 >= 0
d53 - x122 >= 0
x106 - x121 = 0
x108 + x109 + x126 - 2 d54 >= 0
d54 - x108 >= 0
d54 - x109 >= 0
d54 - x126 >= 0
x108 - x113 = 0
x110 + x111 + x124 - 2 d55 >= 0
d55 - x110 >= 0
d55 - x111 >= 0
d55 - x124 >= 0
x110 - x117 = 0
x112 + x113 + x130 - 2 d56 >= 0
d56 - x112 >= 0
d56 - x113 >= 0
d56 - x130 >= 0
x112 - x135 = 0
x114 + x115 + x132 - 2 d57 >= 0
d57 - x114 >= 0
d57 - x115 >= 0
d57 - x132 >= 0
x114 - x141 = 0
x116 + x117 + x136 - 2 d58 >= 0
d58 - x116 >= 0
d58 - x117 >= 0
d58 - x136 >= 0
x116 - x139 = 0
x118 + x119 + x134 - 2 d59 >= 0
d59 - x118 >= 0
d59 - x119 >= 0
d59 - x134 >= 0
x118 - x131 = 0
x120 + x121 + x128 - 2 d60 >= 0
d60 - x120 >= 0
d60 - x121 >= 0
d60 - x128 >= 0
x120 - x143 = 0
x122 + x123 + x138 - 2 d61 >= 0
d61 - x122 >= 0
d61 - x123 >= 0
d61 - x138 >= 0
x122 - x137 = 0
x124 + x125 + x142 - 2 d62 >= 0
d62 - x124 >= 0
d62 - x125 >= 0
d62 - x142 >= 0
x124 - x129 = 0
x126 + x127 + x140 - 2 d63 >= 0
d63 - x126 >= 0
d63 - x127 >= 0
d63 - x140 >= 0
x126 - x133 = 0
x128 + x129 + x146 - 2 d64 >= 0
d64 - x128 >= 0
d64 - x129 >= 0
d64 - x146 >= 0
x128 - x151 = 0
x130 + x131 + x148 - 2 d65 >= 0
d65 - x130 >= 0
d65 - x131 >= 0
d65 - x148 >= 0
x130 - x157 = 0
x132 + x133 + x152 - 2 d66 >= 0
d66 - x132 >= 0
d66 - x133 >= 0
d66 - x152 >= 0
x132 - x155 = 0
x134 + x135 + x150 - 2 d67 >= 0
d67 - x134 >= 0
d67 - x135 >= 0
d67 - x150 >= 0
x134 - x147 = 0
x136 + x137 + x144 - 2 d68 >= 0
d68 - x136 >= 0
d68 - x137 >= 0
d68 - x144 >= 0
x136 - x159 = 0
x138 + x139 + x154 - 2 d69 >= 0
d69 - x138 >= 0
d69 - x139 >= 0
d69 - x154 >= 0
x138 - x153 = 0
x140 + x141 + x158 - 2 d70 >= 0
d70 - x140 >= 0
d70 - x141 >= 0
d70 - x158 >= 0
x140 - x145 = 0
x142 + x143 + x156 - 2 d71 >= 0
d71 - x142 >= 0
d71 - x143 >= 0
d71 - x156 >= 0
x142 - x149 = 0
x144 + x145 + x162 - 2 d72 >= 0
d72 - x144 >= 0
d72 - x145 >= 0
d72 - x162 >= 0
x144 - x167 = 0
x146 + x147 + x164 - 2 d73 >= 0
d73 - x146 >= 0
d73 - x147 >= 0
d73 - x164 >= 0
x146 - x173 = 0
x148 + x149 + x168 - 2 d74 >= 0
d74 - x148 >= 0
d74 - x149 >= 0
d74 - x168 >= 0
x148 - x171 = 0
x150 + x151 + x166 - 2 d75 >= 0
d75 - x150 >= 0
d75 - x151 >= 0
d75 - x166 >= 0
x150 - x163 = 0
x152 + x153 + x160 - 2 d76 >= 0
d76 - x152 >= 0
d76 - x153 >= 0
d76 - x160 >= 0
x152 - x175 = 0
x154 + x155 + x170 - 2 d77 >= 0
d77 - x154 >= 0
d77 - x155 >= 0
d77 - x170 >= 0
x154 - x169 = 0
x156 + x157 + x174 - 2 d78 >= 0
d78 - x156 >= 0
d78 - x157 >= 0
d78 - x174 >= 0
x156 - x161 = 0
x158 + x159 + x172 - 2 d79 >= 0
d79 - x158 >= 0
d79 - x159 >= 0
d79 - x172 >= 0
x158 - x165 = 0
x160 + x161 + x178 - 2 d80 >= 0
d80 - x160 >= 0
d80 - x161 >= 0
d80 - x178 >= 0
x160 - x183 = 0
x162 + x163 + x180 - 2 d81 >= 0
d81 - x162 >= 0
d81 - x163 >= 0
d81 - x180 >= 0
x162 - x189 = 0
x164 + x165 + x184 - 2 d82 >= 0
d82 - x164 >= 0
d82 - x165 >= 0
d82 - x184 >= 0
x164 - x187 = 0
x166 + x167 + x182 - 2 d83 >= 0
d83 - x166 >= 0
d83 - x167 >= 0
d83 - x182 >= 0
x166 - x179 = 0
x168 + x169 + x176 - 2 d84 >= 0
d84 - x168 >= 0
d84 - x169 >= 0
d84 - x176 >= 0
x168 - x191 = 0
x170 + x171 + x186 - 2 d85 >= 0
d85 - x170 >= 0
d85 - x171 >= 0
d85 - x186 >= 0
x170 - x185 = 0
x172 + x173 + x190 - 2 d86 >= 0
d86 - x172 >= 0
d86 - x173 >= 0
d86 - x190 >= 0
x172 - x177 = 0
x174 + x175 + x188 - 2 d87 >= 0
d87 - x174 >= 0
d87 - x175 >= 0
d87 - x188 >= 0
x174 - x181 = 0
x176 + x177 + x194 - 2 d88 >= 0
d88 - x176 >= 0
d88 - x177 >= 0
d88 - x194 >= 0
x176 - x199 = 0
x178 + x179 + x196 - 2 d89 >= 0
d89 - x178 >= 0
d89 - x179 >= 0
d89 - x196 >= 0
x178 - x205 = 0
x180 + x181 + x200 - 2 d90 >= 0
d90 - x180 >= 0
d90 - x181 >= 0
d90 - x200 >= 0
x180 - x203 = 0
x182 + x183 + x198 - 2 d91 >= 0
d91 - x182 >= 0
d91 - x183 >= 0
d91 - x198 >= 0
x182 - x195 = 0
x184 + x185 + x192 - 2 d92 >= 0
d92 - x184 >= 0
d92 - x185 >= 0
d92 - x192 >= 0
x184 - x207 = 0
x186 + x187 + x202 - 2 d93 >= 0
d93 - x186 >= 0
d93 - x187 >= 0
d93 - x202 >= 0
x186 - x201 = 0
x188 + x189 + x206 - 2 d94 >= 0
d94 - x188 >= 0
d94 - x189 >= 0
d94 - x206 >= 0
x188 - x193 = 0
x190 + x191 + x204 - 2 d95 >= 0
d95 - x190 >= 0
d95 - x191 >= 0
d95 - x204 >= 0
x190 - x197 = 0
x192 + x193 + x210 - 2 d96 >= 0
d96 - x192 >= 0
d96 - x193 >= 0
d96 - x210 >= 0
x192 - x215 = 0
x194 + x195 + x212 - 2 d97 >= 0
d97 - x194 >= 0
d97 - x195 >= 0
d97 - x212 >= 0
x194 - x221 = 0
x196 + x197 + x216 - 2 d98 >= 0
d98 - x196 >= 0
d98 - x197 >= 0
d98 - x216 >= 0
x196 - x219 = 0
x198 + x199 + x214 - 2 d99 >= 0
d99 - x198 >= 0
d99 - x199 >= 0
d99 - x214 >= 0
x198 - x211 = 0
x200 + x201 + x208 - 2 d100 >= 0
d100 - x200 >= 0
d100 - x201 >= 0
d100 - x208 >= 0
x200 - x223 = 0
x202 + x203 + x218 - 2 d101 >= 0
d101 - x202 >= 0
d101 - x203 >= 0
d101 - x218 >= 0
x202 - x217 = 0
x204 + x205 + x222 - 2 d102 >= 0
d102 - x204 >= 0
d102 - x205 >= 0
d102 - x222 >= 0
x204 - x209 = 0
x206 + x207 + x220 - 2 d103 >= 0
d103 - x206 >= 0
d103 - x207 >= 0
d103 - x220 >= 0
x206 - x213 = 0
x208 + x209 + x226 - 2 d104 >= 0
d104 - x208 >= 0
d104 - x209 >= 0
d104 - x226 >= 0
x208 - x231 = 0
x210 + x211 + x228 - 2 d105 >= 0
d105 - x210 >= 0
d105 - x211 >= 0
d105 - x228 >= 0
x210 - x237 = 0
x212 + x213 + x232 - 2 d106 >= 0
d106 - x212 >= 0
d106 - x213 >= 0
d106 - x232 >= 0
x212 - x235 = 0
x214 + x215 + x230 - 2 d107 >= 0
d107 - x214 >= 0
d107 - x215 >= 0
d107 - x230 >= 0
x214 - x227 = 0
x216 + x217 + x224 - 2 d108 >= 0
d108 - x216 >= 0
d108 - x217 >= 0
d108 - x224 >= 0
x216 - x239 = 0
x218 + x219 + x234 - 2 d109 >= 0
d109 - x218 >= 0
d109 - x219 >= 0
d109 - x234 >= 0
x218 - x233 = 0
x220 + x221 + x238 - 2 d110 >= 0
d110 - x220 >= 0
d110 - x221 >= 0
d110 - x238 >= 0
x220 - x225 = 0
x222 + x223 + x236 - 2 d111 >= 0
d111 - x222 >= 0
d111 - x223 >= 0
d111 - x236 >= 0
x222 - x229 = 0
x224 + x225 + x242 - 2 d112 >= 0
d112 - x224 >= 0
d112 - x225 >= 0
d112 - x242 >= 0
x224 - x247 = 0
x226 + x227 + x244 - 2 d113 >= 0
d113 - x226 >= 0
d113 - x227 >= 0
d113 - x244 >= 0
x226 - x253 = 0
x228 + x229 + x248 - 2 d114 >= 0
d114 - x228 >= 0
d114 - x229 >= 0
d114 - x248 >= 0
x228 - x251 = 0
x230 + x231 + x246 - 2 d115 >= 0
d115 - x230 >= 0
d115 - x231 >= 0
d115 - x246 >= 0
x230 - x243 = 0
x232 + x233 + x240 - 2 d116 >= 0
d116 - x232 >= 0
d116 - x233 >= 0
d116 - x240 >= 0
x232 - x255 = 0
x234 + x235 + x250 - 2 d117 >= 0
d117 - x234 >= 0
d117 - x235 >= 0
d117 - x250 >= 0
x234 - x249 = 0
x236 + x237 + x254 - 2 d118 >= 0
d118 - x236 >= 0
d118 - x237 >= 0
d118 - x254 >= 0
x236 - x241 = 0
x238 + x239 + x252 - 2 d119 >= 0
d119 - x238 >= 0
d119 - x239 >= 0
d119 - x252 >= 0
x238 - x245 = 0
x240 + x241 + x258 - 2 d120 >= 0
d120 - x240 >= 0
d120 - x241 >= 0
d120 - x258 >= 0
x240 - x263 = 0
x242 + x243 + x260 - 2 d121 >= 0
d121 - x242 >= 0
d121 - x243 >= 0
d121 - x260 >= 0
x242 - x269 = 0
x244 + x245 + x264 - 2 d122 >= 0
d122 - x244 >= 0
d122 - x245 >= 0
d122 - x264 >= 0
x244 - x267 = 0
x246 + x247 + x262 - 2 d123 >= 0
d123 - x246 >= 0
d123 - x247 >= 0
d123 - x262 >= 0
x246 - x259 = 0
x248 + x249 + x256 - 2 d124 >= 0
d124 - x248 >= 0
d124 - x249 >= 0
d124 - x256 >= 0
x248 - x271 = 0
x250 + x251 + x266 - 2 d125 >= 0
d125 - x250 >= 0
d125 - x251 >= 0
d125 - x266 >= 0
x250 - x265 = 0
x252 + x253 + x270 - 2 d126 >= 0
d126 - x252 >= 0
d126 - x253 >= 0
d126 - x270 >= 0
x252 - x257 = 0
x254 + x255 + x268 - 2 d127 >= 0
d127 - x254 >= 0
d127 - x255 >= 0
d127 - x268 >= 0
x254 - x261 = 0
x256 + x257 + x274 - 2 d128 >= 0
d128 - x256 >= 0
d128 - x257 >= 0
d128 - x274 >= 0
x256 - x279 = 0
x258 + x259 + x276 - 2 d129 >= 0
d129 - x258 >= 0
d129 - x259 >= 0
d129 - x276 >= 0
x258 - x285 = 0
x260 + x261 + x280 - 2 d130 >= 0
d130 - x260 >= 0
d130 - x261 >= 0
d130 - x280 >= 0
x260 - x283 = 0
x262 + x263 + x278 - 2 d131 >= 0
d131 - x262 >= 0
d131 - x263 >= 0
d131 - x278 >= 0
x262 - x275 = 0
x264 + x265 + x272 - 2 d132 >= 0
d132 - x264 >= 0
d132 - x265 >= 0
d132 - x272 >= 0
x264 - x287 = 0
x266 + x267 + x282 - 2 d133 >= 0
d133 - x266 >= 0
d133 - x267 >= 0
d133 - x282 >= 0
x266 - x281 = 0
x268 + x269 + x286 - 2 d134 >= 0
d134 - x268 >= 0
d134 - x269 >= 0
d134 - x286 >= 0
x268 - x273 = 0
x270 + x271 + x284 - 2 d135 >= 0
d135 - x270 >= 0
d135 - x271 >= 0
d135 - x284 >= 0
x270 - x277 = 0
x272 + x273 + x290 - 2 d136 >= 0
d136 - x272 >= 0
d136 - x273 >= 0
d136 - x290 >= 0
x272 - x295 = 0
x274 + x275 + x292 - 2 d137 >= 0
d137 - x274 >= 0
d137 - x275 >= 0
d137 - x292 >= 0
x274 - x301 = 0
x276 + x277 + x296 - 2 d138 >= 0
d138 - x276 >= 0
d138 - x277 >= 0
d138 - x296 >= 0
x276 - x299 = 0
x278 + x279 + x294 - 2 d139 >= 0
d139 - x278 >= 0
d139 - x279 >= 0
d139 - x294 >= 0
x278 - x291 = 0
x280 + x281 + x288 - 2 d140 >= 0
d140 - x280 >= 0
d140 - x281 >= 0
d140 - x288 >= 0
x280 - x303 = 0
x282 + x283 + x298 - 2 d141 >= 0
d141 - x282 >= 0
d141 - x283 >= 0
d141 - x298 >= 0
x282 - x297 = 0
x284 + x285 + x302 - 2 d142 >= 0
d142 - x284 >= 0
d142 - x285 >= 0
d142 - x302 >= 0
x284 - x289 = 0
x286 + x287 + x300 - 2 d143 >= 0
d143 - x286 >= 0
d143 - x287 >= 0
d143 - x300 >= 0
x286 - x293 = 0
x288 + x289 + x306 - 2 d144 >= 0
d144 - x288 >= 0
d144 - x289 >= 0
d144 - x306 >= 0
x288 - x311 = 0
x290 + x291 + x308 - 2 d145 >= 0
d145 - x290 >= 0
d145 - x291 >= 0
d145 - x308 >= 0
x290 - x317 = 0
x292 + x293 + x312 - 2 d146 >= 0
d146 - x292 >= 0
d146 - x293 >= 0
d146 - x312 >= 0
x292 - x315 = 0
x294 + x295 + x310 - 2 d147 >= 0
d147 - x294 >= 0
d147 - x295 >= 0
d147 - x310 >= 0
x294 - x307 = 0
x296 + x297 + x304 - 2 d148 >= 0
d148 - x296 >= 0
d148 - x297 >= 0
d148 - x304 >= 0
x296 - x319 = 0
x298 + x299 + x314 - 2 d149 >= 0
d149 - x298 >= 0
d149 - x299 >= 0
d149 - x314 >= 0
x298 - x313 = 0
x300 + x301 + x318 - 2 d150 >= 0
d150 - x300 >= 0
d150 - x301 >= 0
d150 - x318 >= 0
x300 - x305 = 0
x302 + x303 + x316 - 2 d151 >= 0
d151 - x302 >= 0
d151 - x303 >= 0
d151 - x316 >= 0
x302 - x309 = 0
x304 + x305 + x322 - 2 d152 >= 0
d152 - x304 >= 0
d152 - x305 >= 0
d152 - x322 >= 0
x304 - x327 = 0
x306 + x307 + x324 - 2 d153 >= 0
d153 - x306 >= 0
d153 - x307 >= 0
d153 - x324 >= 0
x306 - x333 = 0
x308 + x309 + x328 - 2 d154 >= 0
d154 - x308 >= 0
d154 - x309 >= 0
d154 - x328 >= 0
x308 - x331 = 0
x310 + x311 + x326 - 2 d155 >= 0
d155 - x310 >= 0
d155 - x311 >= 0
d155 - x326 >= 0
x310 - x323 = 0
x312 + x313 + x320 - 2 d156 >= 0
d156 - x312 >= 0
d156 - x313 >= 0
d156 - x320 >= 0
x312 - x335 = 0
x314 + x315 + x330 - 2 d157 >= 0
d157 - x314 >= 0
d157 - x315 >= 0
d157 - x330 >= 0
x314 - x329 = 0
x316 + x317 + x334 - 2 d158 >= 0
d158 - x316 >= 0
d158 - x317 >= 0
d158 - x334 >= 0
x316 - x321 = 0
x318 + x319 + x332 - 2 d159 >= 0
d159 - x318 >= 0
d159 - x319 >= 0
d159 - x332 >= 0
x318 - x325 = 0
x320 + x321 + x338 - 2 d160 >= 0
d160 - x320 >= 0
d160 - x321 >= 0
d160 - x338 >= 0
x320 - x343 = 0
x322 + x323 + x340 - 2 d161 >= 0
d161 - x322 >= 0
d161 - x323 >= 0
d161 - x340 >= 0
x322 - x349 = 0
x324 + x325 + x344 - 2 d162 >= 0
d162 - x324 >= 0
d162 - x325 >= 0
d162 - x344 >= 0
x324 - x347 = 0
x326 + x327 + x342 - 2 d163 >= 0
d163 - x326 >= 0
d163 - x327 >= 0
d163 - x342 >= 0
x326 - x339 = 0
x328 + x329 + x336 - 2 d164 >= 0
d164 - x328 >= 0
d164 - x329 >= 0
d164 - x336 >= 0
x328 - x351 = 0
x330 + x331 + x346 - 2 d165 >= 0
d165 - x330 >= 0
d165 - x331 >= 0
d165 - x346 >= 0
x330 - x345 = 0
x332 + x333 + x350 - 2 d166 >= 0
d166 - x332 >= 0
d166 - x333 >= 0
d166 - x350 >= 0
x332 - x337 = 0
x334 + x335 + x348 - 2 d167 >= 0
d167 - x334 >= 0
d167 - x335 >= 0
d167 - x348 >= 0
x334 - x341 = 0
x336 + x337 + x354 - 2 d168 >= 0
d168 - x336 >= 0
d168 - x337 >= 0
d168 - x354 >= 0
x336 - x359 = 0
x338 + x339 + x356 - 2 d169 >= 0
d169 - x338 >= 0
d169 - x339 >= 0
d169 - x356 >= 0
x338 - x365 = 0
x340 + x341 + x360 - 2 d170 >= 0
d170 - x340 >= 0
d170 - x341 >= 0
d170 - x360 >= 0
x340 - x363 = 0
x342 + x343 + x358 - 2 d171 >= 0
d171 - x342 >= 0
d171 - x343 >= 0
d171 - x358 >= 0
x342 - x355 = 0
x344 + x345 + x352 - 2 d172 >= 0
d172 - x344 >= 0
d172 - x345 >= 0
d172 - x352 >= 0
x344 - x367 = 0
x346 + x347 + x362 - 2 d173 >= 0
d173 - x346 >= 0
d173 - x347 >= 0
d173 - x362 >= 0
x346 - x361 = 0
x348 + x349 + x366 - 2 d174 >= 0
d174 - x348 >= 0
d174 - x349 >= 0
d174 - x366 >= 0
x348 - x353 = 0
x350 + x351 + x364 - 2 d175 >= 0
d175 - x350 >= 0
d175 - x351 >= 0
d175 - x364 >= 0
x350 - x357 = 0
x352 + x353 + x370 - 2 d176 >= 0
d176 - x352 >= 0
d176 - x353 >= 0
d176 - x370 >= 0
x352 - x375 = 0
x354 + x355 + x372 - 2 d177 >= 0
d177 - x354 >= 0
d177 - x355 >= 0
d177 - x372 >= 0
x354 - x381 = 0
x356 + x357 + x376 - 2 d178 >= 0
d178 - x356 >= 0
d178 - x357 >= 0
d178 - x376 >= 0
x356 - x379 = 0
x358 + x359 + x374 - 2 d179 >= 0
d179 - x358 >= 0
d179 - x359 >= 0
d179 - x374 >= 0
x358 - x371 = 0
x360 + x361 + x368 - 2 d180 >= 0
d180 - x360 >= 0
d180 - x361 >= 0
d180 - x368 >= 0
x360 - x383 = 0
x362 + x363 + x378 - 2 d181 >= 0
d181 - x362 >= 0
d181 - x363 >= 0
d181 - x378 >= 0
x362 - x377 = 0
x364 + x365 + x382 - 2 d182 >= 0
d182 - x364 >= 0
d182 - x365 >= 0
d182 - x382 >= 0
x364 - x369 = 0
x366 + x367 + x380 - 2 d183 >= 0
d183 - x366 >= 0
d183 - x367 >= 0
d183 - x380 >= 0
x366 - x373 = 0
x368 + x369 + x386 - 2 d184 >= 0
d184 - x368 >= 0
d184 - x369 >= 0
d184 - x386 >= 0
x368 - x391 = 0
x370 + x371 + x388 - 2 d185 >= 0
d185 - x370 >= 0
d185 - x371 >= 0
d185 - x388 >= 0
x370 - x397 = 0
x372 + x373 + x392 - 2 d186 >= 0
d186 - x372 >= 0
d186 - x373 >= 0
d186 - x392 >= 0
x372 - x395 = 0
x374 + x375 + x390 - 2 d187 >= 0
d187 - x374 >= 0
d187 - x375 >= 0
d187 - x390 >= 0
x374 - x387 = 0
x376 + x377 + x384 - 2 d188 >= 0
d188 - x376 >= 0
d188 - x377 >= 0
d188 - x384 >= 0
x376 - x399 = 0
x378 + x379 + x394 - 2 d189 >= 0
d189 - x378 >= 0
d189 - x379 >= 0
d189 - x394 >= 0
x378 - x393 = 0
x380 + x381 + x398 - 2 d190 >= 0
d190 - x380 >= 0
d190 - x381 >= 0
d190 - x398 >= 0
x380 - x385 = 0
x382 + x383 + x396 - 2 d191 >= 0
d191 - x382 >= 0
d191 - x383 >= 0
d191 - x396 >= 0
x382 - x389 = 0
x384 + x385 + x402 - 2 d192 >= 0
d192 - x384 >= 0
d192 - x385 >= 0
d192 - x402 >= 0
x384 - x407 = 0
x386 + x387 + x404 - 2 d193 >= 0
d193 - x386 >= 0
d193 - x387 >= 0
d193 - x404 >= 0
x386 - x413 = 0
x388 + x389 + x408 - 2 d194 >= 0
d194 - x388 >= 0
d194 - x389 >= 0
d194 - x408 >= 0
x388 - x411 = 0
x390 + x391 + x406 - 2 d195 >= 0
d195 - x390 >= 0
d195 - x391 >= 0
d195 - x406 >= 0
x390 - x403 = 0
x392 + x393 + x400 - 2 d196 >= 0
d196 - x392 >= 0
d196 - x393 >= 0
d196 - x400 >= 0
x392 - x415 = 0
x394 + x395 + x410 - 2 d197 >= 0
d197 - x394 >= 0
d197 - x395 >= 0
d197 - x410 >= 0
x394 - x409 = 0
x396 + x397 + x414 - 2 d198 >= 0
d198 - x396 >= 0
d198 - x397 >= 0
d198 - x414 >= 0
x396 - x401 = 0
x398 + x399 + x412 - 2 d199 >= 0
d199 - x398 >= 0
d199 - x399 >= 0
d199 - x412 >= 0
x398 - x405 = 0
x400 + x401 + x418 - 2 d200 >= 0
d200 - x400 >= 0
d200 - x401 >= 0
d200 - x418 >= 0
x400 - x423 = 0
x402 + x403 + x420 - 2 d201 >= 0
d201 - x402 >= 0
d201 - x403 >= 0
d201 - x420 >= 0
x402 - x429 = 0
x404 + x405 + x424 - 2 d202 >= 0
d202 - x404 >= 0
d202 - x405 >= 0
d202 - x424 >= 0
x404 - x427 = 0
x406 + x407 + x422 - 2 d203 >= 0
d203 - x406 >= 0
d203 - x407 >= 0
d203 - x422 >= 0
x406 - x419 = 0
x408 + x409 + x416 - 2 d204 >= 0
d204 - x408 >= 0
d204 - x409 >= 0
d204 - x416 >= 0
x408 - x431 = 0
x410 + x411 + x426 - 2 d205 >= 0
d205 - x410 >= 0
d205 - x411 >= 0
d205 - x426 >= 0
x410 - x425 = 0
x412 + x413 + x430 - 2 d206 >= 0
d206 - x412 >= 0
d206 - x413 >= 0
d206 - x430 >= 0
x412 - x417 = 0
x414 + x415 + x428 - 2 d207 >= 0
d207 - x414 >= 0
d207 - x415 >= 0
d207 - x428 >= 0
x414 - x421 = 0
x416 + x417 + x434 - 2 d208 >= 0
d208 - x416 >= 0
d208 - x417 >= 0
d208 - x434 >= 0
x416 - x439 = 0
x418 + x419 + x436 - 2 d209 >= 0
d209 - x418 >= 0
d209 - x419 >= 0
d209 - x436 >= 0
x418 - x445 = 0
x420 + x421 + x440 - 2 d210 >= 0
d210 - x420 >= 0
d210 - x421 >= 0
d210 - x440 >= 0
x420 - x443 = 0
x422 + x423 + x438 - 2 d211 >= 0
d211 - x422 >= 0
d211 - x423 >= 0
d211 - x438 >= 0
x422 - x435 = 0
x424 + x425 + x432 - 2 d212 >= 0
d212 - x424 >= 0
d212 - x425 >= 0
d212 - x432 >= 0
x424 - x447 = 0
x426 + x427 + x442 - 2 d213 >= 0
d213 - x426 >= 0
d213 - x427 >= 0
d213 - x442 >= 0
x426 - x441 = 0
x428 + x429 + x446 - 2 d214 >= 0
d214 - x428 >= 0
d214 - x429 >= 0
d214 - x446 >= 0
x428 - x433 = 0
x430 + x431 + x444 - 2 d215 >= 0
d215 - x430 >= 0
d215 - x431 >= 0
d215 - x444 >= 0
x430 - x437 = 0
x432 + x433 + x450 - 2 d216 >= 0
d216 - x432 >= 0
d216 - x433 >= 0
d216 - x450 >= 0
x432 - x455 = 0
x434 + x435 + x452 - 2 d217 >= 0
d217 - x434 >= 0
d217 - x435 >= 0
d217 - x452 >= 0
x434 - x461 = 0
x436 + x437 + x456 - 2 d218 >= 0
d218 - x436 >= 0
d218 - x437 >= 0
d218 - x456 >= 0
x436 - x459 = 0
x438 + x439 + x454 - 2 d219 >= 0
d219 - x438 >= 0
d219 - x439 >= 0
d219 - x454 >= 0
x438 - x451 = 0
x440 + x441 + x448 - 2 d220 >= 0
d220 - x440 >= 0
d220 - x441 >= 0
d220 - x448 >= 0
x440 - x463 = 0
x442 + x443 + x458 - 2 d221 >= 0
d221 - x442 >= 0
d221 - x443 >= 0
d221 - x458 >= 0
x442 - x457 = 0
x444 + x445 + x462 - 2 d222 >= 0
d222 - x444 >= 0
d222 - x445 >= 0
d222 - x462 >= 0
x444 - x449 = 0
x446 + x447 + x460 - 2 d223 >= 0
d223 - x446 >= 0
d223 - x447 >= 0
d223 - x460 >= 0
x446 - x453 = 0
x448 + x449 + x466 - 2 d224 >= 0
d224 - x448 >= 0
d224 - x449 >= 0
d224 - x466 >= 0
x448 - x471 = 0
x450 + x451 + x468 - 2 d225 >= 0
d225 - x450 >= 0
d225 - x451 >= 0
d225 - x468 >= 0
x450 - x477 = 0
x452 + x453 + x472 - 2 d226 >= 0
d226 - x452 >= 0
d226 - x453 >= 0
d226 - x472 >= 0
x452 - x475 = 0
x454 + x455 + x470 - 2 d227 >= 0
d227 - x454 >= 0
d227 - x455 >= 0
d227 - x470 >= 0
x454 - x467 = 0
x456 + x457 + x464 - 2 d228 >= 0
d228 - x456 >= 0
d228 - x457 >= 0
d228 - x464 >= 0
x456 - x479 = 0
x458 + x459 + x474 - 2 d229 >= 0
d229 - x458 >= 0
d229 - x459 >= 0
d229 - x474 >= 0
x458 - x473 = 0
x460 + x461 + x478 - 2 d230 >= 0
d230 - x460 >= 0
d230 - x461 >= 0
d230 - x478 >= 0
x460 - x465 = 0
x462 + x463 + x476 - 2 d231 >= 0
d231 - x462 >= 0
d231 - x463 >= 0
d231 - x476 >= 0
x462 - x469 = 0
x464 + x465 + x482 - 2 d232 >= 0
d232 - x464 >= 0
d232 - x465 >= 0
d232 - x482 >= 0
x464 - x487 = 0
x466 + x467 + x484 - 2 d233 >= 0
d233 - x466 >= 0
d233 - x467 >= 0
d233 - x484 >= 0
x466 - x493 = 0
x468 + x469 + x488 - 2 d234 >= 0
d234 - x468 >= 0
d234 - x469 >= 0
d234 - x488 >= 0
x468 - x491 = 0
x470 + x471 + x486 - 2 d235 >= 0
d235 - x470 >= 0
d235 - x471 >= 0
d235 - x486 >= 0
x470 - x483 = 0
x472 + x473 + x480 - 2 d236 >= 0
d236 - x472 >= 0
d236 - x473 >= 0
d236 - x480 >= 0
x472 - x495 = 0
x474 + x475 + x490 - 2 d237 >= 0
d237 - x474 >= 0
d237 - x475 >= 0
d237 - x490 >= 0
x474 - x489 = 0
x476 + x477 + x494 - 2 d238 >= 0
d238 - x476 >= 0
d238 - x477 >= 0
d238 - x494 >= 0
x476 - x481 = 0
x478 + x479 + x492 - 2 d239 >= 0
d239 - x478 >= 0
d239 - x479 >= 0
d239 - x492 >= 0
x478 - x485 = 0
x480 + x481 + x498 - 2 d240 >= 0
d240 - x480 >= 0
d240 - x481 >= 0
d240 - x498 >= 0
x480 - x503 = 0
x482 + x483 + x500 - 2 d241 >= 0
d241 - x482 >= 0
d241 - x483 >= 0
d241 - x500 >= 0
x482 - x509 = 0
x484 + x485 + x504 - 2 d242 >= 0
d242 - x484 >= 0
d242 - x485 >= 0
d242 - x504 >= 0
x484 - x507 = 0
x486 + x487 + x502 - 2 d243 >= 0
d243 - x486 >= 0
d243 - x487 >= 0
d243 - x502 >= 0
x486 - x499 = 0
x488 + x489 + x496 - 2 d244 >= 0
d244 - x488 >= 0
d244 - x489 >= 0
d244 - x496 >= 0
x488 - x511 = 0
x490 + x491 + x506 - 2 d245 >= 0
d245 - x490 >= 0
d245 - x491 >= 0
d245 - x506 >= 0
x490 - x505 = 0
x492 + x493 + x510 - 2 d246 >= 0
d246 - x492 >= 0
d246 - x493 >= 0
d246 - x510 >= 0
x492 - x497 = 0
x494 + x495 + x508 - 2 d247 >= 0
d247 - x494 >= 0
d247 - x495 >= 0
d247 - x508 >= 0
x494 - x501 = 0
x496 + x497 + x514 - 2 d248 >= 0
d248 - x496 >= 0
d248 - x497 >= 0
d248 - x514 >= 0
x496 - x519 = 0
x498 + x499 + x516 - 2 d249 >= 0
d249 - x498 >= 0
d249 - x499 >= 0
d249 - x516 >= 0
x498 - x525 = 0
x500 + x501 + x520 - 2 d250 >= 0
d250 - x500 >= 0
d250 - x501 >= 0
d250 - x520 >= 0
x500 - x523 = 0
x502 + x503 + x518 - 2 d251 >= 0
d251 - x502 >= 0
d251 - x503 >= 0
d251 - x518 >= 0
x502 - x515 = 0
x504 + x505 + x512 - 2 d252 >= 0
d252 - x504 >= 0
d252 - x505 >= 0
d252 - x512 >= 0
x504 - x527 = 0
x506 + x507 + x522 - 2 d253 >= 0
d253 - x506 >= 0
d253 - x507 >= 0
d253 - x522 >= 0
x506 - x521 = 0
x508 + x509 + x526 - 2 d254 >= 0
d254 - x508 >= 0
d254 - x509 >= 0
d254 - x526 >= 0
x508 - x513 = 0
x510 + x511 + x524 - 2 d255 >= 0
d255 - x510 >= 0
d255 - x511 >= 0
d255 - x524 >= 0
x510 - x517 = 0
x0 + x1 + x2 + x3 + x4 + x5 + x6 + x7 + x8 + x9 + x10 + x11 + x12 + x13 + x14 + x15 >= 1

Binary
x0
x1
x2
x3
x4
x5
x6
x7
x8
x9
x10
x11
x12
x13
x14
x15
x16
x17
x18
x19
x20
x21
x22
x23
x24
x25
x26
x27
x28
x29
x30
x31
x32
x33
x34
x35
x36
x37
x38
x39
x40
x41
x42
x43
x44
x45
x46
x47
x48
x49
x50
x51
x52
x53
x54
x55
x56
x57
x58
x59
x60
x61
x62
x63
x64
x65
x66
x67
x68
x69
x70
x71
x72
x73
x74
x75
x76
x77
x78
x79
x80
x81
x82
x83
x84
x85
x86
x87
x88
x89
x90
x91
x92
x93
x94
x95
x96
x97
x98
x99
x100
x101
x102
x103
x104
x105
x106
x107
x108
x109
x110
x111
x112
x113
x114
x115
x116
x117
x118
x119
x120
x121
x122
x123
x124
x125
x126
x127
x128
x129
x130
x131
x132
x133
x134
x135
x136
x137
x138
x139
x140
x141
x142
x143
x144
x145
x146
x147
x148
x149
x150
x151
x152
x153
x154
x155
x156
x157
x158
x159
x160
x161
x162
x163
x164
x165
x166
x167
x168
x169
x170
x171
x172
x173
x174
x175
x176
x177
x178
x179
x180
x181
x182
x183
x184
x185
x186
x187
x188
x189
x190
x191
x192
x193
x194
x195
x196
x197
x198
x199
x200
x201
x202
x203
x204
x205
x206
x207
x208
x209
x210
x211
x212
x213
x214
x215
x216
x217
x218
x219
x220
x221
x222
x223
x224
x225
x226
x227
x228
x229
x230
x231
x232
x233
x234
x235
x236
x237
x238
x239
x240
x241
x242
x243
x244
x245
x246
x247
x248
x249
x250
x251
x252
x253
x254
x255
x256
x257
x258
x259
x260
x261
x262
x263
x264
x265
x266
x267
x268
x269
x270
x271
x272
x273
x274
x275
x276
x277
x278
x279
x280
x281
x282
x283
x284
x285
x286
x287
x288
x289
x290
x291
x292
x293
x294
x295
x296
x297
x298
x299
x300
x301
x302
x303
x304
x305
x306
x307
x308
x309
x310
x311
x312
x313
x314
x315
x316
x317
x318
x319
x320
x321
x322
x323
x324
x325
x326
x327
x328
x329
x330
x331
x332
x333
x334
x335
x336
x337
x338
x339
x340
x341
x342
x343
x344
x345
x346
x347
x348
x349
x350
x351
x352
x353
x354
x355
x356
x357
x358
x359
x360
x361
x362
x363
x364
x365
x366
x367
x368
x369
x370
x371
x372
x373
x374
x375
x376
x377
x378
x379
x380
x381
x382
x383
x384
x385
x386
x387
x388
x389
x390
x391
x392
x393
x394
x395
x396
x397
x398
x399
x400
x401
x402
x403
x404
x405
x406
x407
x408
x409
x410
x411
x412
x413
x414
x415
x416
x417
x418
x419
x420
x421
x422
x423
x424
x425
x426
x427
x428
x429
x430
x431
x432
x433
x434
x435
x436
x437
x438
x439
x440
x441
x442
x443
x444
x445
x446
x447
x448
x449
x450
x451
x452
x453
x454
x455
x456
x457
x458
x459
x460
x461
x462
x463
x464
x465
x466
x467
x468
x469
x470
x471
x472
x473
x474
x475
x476
x477
x478
x479
x480
x481
x482
x483
x484
x485
x486
x487
x488
x489
x490
x491
x492
x493
x494
x495
x496
x497
x498
x499
x500
x501
x502
x503
x504
x505
x506
x507
x508
x509
x510
x511
d0
d1
d2
d3
d4
d5
d6
d7
d8
d9
d10
d11
d12
d13
d14
d15
d16
d17
d18
d19
d20
d21
d22
d23
d24
d25
d26
d27
d28
d29
d30
d31
d32
d33
d34
d35
d36
d37
d38
d39
d40
d41
d42
d43
d44
d45
d46
d47
d48
d49
d50
d51
d52
d53
d54
d55
d56
d57
d58
d59
d60
d61
d62
d63
d64
d65
d66
d67
d68
d69
d70
d71
d72
d73
d74
d75
d76
d77
d78
d79
d80
d81
d82
d83
d84
d85
d86
d87
d88
d89
d90
d91
d92
d93
d94
d95
d96
d97
d98
d99
d100
d101
d102
d103
d104
d105
d106
d107
d108
d109
d110
d111
d112
d113
d114
d115
d116
d117
d118
d119
d120
d121
d122
d123
d124
d125
d126
d127
d128
d129
d130
d131
d132
d133
d134
d135
d136
d137
d138
d139
d140
d141
d142
d143
d144
d145
d146
d147
d148
d149
d150
d151
d152
d153
d154
d155
d156
d157
d158
d159
d160
d161
d162
d163
d164
d165
d166
d167
d168
d169
d170
d171
d172
d173
d174
d175
d176
d177
d178
d179
d180
d181
d182
d183
d184
d185
d186
d187
d188
d189
d190
d191
d192
d193
d194
d195
d196
d197
d198
d199
d200
d201
d202
d203
d204
d205
d206
d207
d208
d209
d210
d211
d212
d213
d214
d215
d216
d217
d218
d219
d220
d221
d222
d223
d224
d225
d226
d227
d228
d229
d230
d231
d232
d233
d234
d235
d236
d237
d238
d239
d240
d241
d242
d243
d244
d245
d246
d247
d248
d249
d250
d251
d252
d253
d254
d255
End
